StudentsNr = 5;
InstructorsNr = 10;
DaysNr = 1;
SlotsPerDay = 10;
RoomNr = 1;
ProgrammNr = 2;
DegreeNr = 1;
RolesNr = 1;
CoursesNr = 3;
InstructorsId = {0, 1, 2, 3, 4, 5, 6, 7, 8, 9};
InstructorsProgramm = [{0, 1}, {0}, {0}, {0}, {1}, {1}, {0}, {1}, {1}, {0}];
InstructorsRoles = [{0}, {}, {}, {}, {0}, {}, {}, {}, {0}, {}];
InstructorsAvailability = [|0, 0, 0, 0, 0, 0, 0, 1, 1, 0, |1, 0, 0, 0, 1, 1, 1, 1, 1, 1, |1, 0, 0, 1, 1, 1, 1, 0, 0, 0, |0, 0, 0, 0, 0, 0, 0, 1, 0, 0, |1, 1, 1, 1, 1, 1, 1, 1, 1, 1, |1, 0, 0, 1, 1, 1, 1, 0, 0, 1, |0, 0, 1, 1, 1, 1, 1, 1, 1, 1, |1, 1, 1, 0, 0, 0, 0, 0, 1, 1, |0, 0, 0, 0, 0, 0, 0, 0, 0, 0, |0, 1, 0, 1, 1, 1, 1, 1, 1, 1|];
